Welcome to the CBC MILP Solver 
Version: 2.10.3 
Build Date: Dec 15 2019 

command line - /home/cdmonsalvea/AI_OR_Workflow/.venv/lib/python3.10/site-packages/pulp/solverdir/cbc/linux/64/cbc /tmp/408727e4f14840a6b0749b5bde1aec55-pulp.mps -sec 3600 -timeMode elapsed -branch -printingOptions all -solution /tmp/408727e4f14840a6b0749b5bde1aec55-pulp.sol (default strategy 1)
At line 2 NAME          MODEL
At line 3 ROWS
At line 147 COLUMNS
At line 15484 RHS
At line 15627 BOUNDS
At line 15699 ENDATA
Problem MODEL has 142 rows, 5112 columns and 10153 elements
Coin0008I MODEL read with 0 errors
seconds was changed from 1e+100 to 3600
Option for timeMode changed from cpu to elapsed
Continuous objective value is 1.98492e+07 - 0.00 seconds
Cgl0004I processed model has 142 rows, 5112 columns (71 integer (71 of which binary)) and 10153 elements
Cbc0038I Initial state - 71 integers unsatisfied sum - 5.61075
Cbc0038I Pass   1: suminf.    0.24472 (1) obj. 4.27494e+08 iterations 71
Cbc0038I Solution found of 4.2867e+08
Cbc0038I Relaxing continuous gives 2.92937e+08
Cbc0038I Before mini branch and bound, 0 integers at bound fixed and 4900 continuous
Cbc0038I Full problem 142 rows 5112 columns, reduced to 138 rows 204 columns
Cbc0038I Mini branch and bound improved solution from 2.92937e+08 to 1.50097e+08 (0.05 seconds)
Cbc0038I Freeing continuous variables gives a solution of 1.22235e+08
Cbc0038I Round again with cutoff of 1.11996e+08
Cbc0038I Pass   2: suminf.    1.94018 (15) obj. 1.11996e+08 iterations 76
Cbc0038I Pass   3: suminf.    1.20854 (17) obj. 1.11996e+08 iterations 11
Cbc0038I Pass   4: suminf.    0.30743 (14) obj. 1.11996e+08 iterations 67
Cbc0038I Pass   5: suminf.    1.77283 (29) obj. 1.11996e+08 iterations 62
Cbc0038I Pass   6: suminf.    3.10524 (38) obj. 1.11996e+08 iterations 34
Cbc0038I Pass   7: suminf.    3.09239 (39) obj. 1.11996e+08 iterations 1
Cbc0038I Pass   8: suminf.    2.64764 (39) obj. 1.11996e+08 iterations 31
Cbc0038I Pass   9: suminf.    2.57373 (38) obj. 1.11996e+08 iterations 1
Cbc0038I Pass  10: suminf.    2.72061 (36) obj. 1.11996e+08 iterations 40
Cbc0038I Pass  11: suminf.    2.24463 (32) obj. 1.11996e+08 iterations 12
Cbc0038I Pass  12: suminf.    2.72061 (36) obj. 1.11996e+08 iterations 13
Cbc0038I Pass  13: suminf.    3.29248 (36) obj. 1.11996e+08 iterations 35
Cbc0038I Pass  14: suminf.    3.04564 (36) obj. 1.11996e+08 iterations 7
Cbc0038I Pass  15: suminf.    2.67449 (35) obj. 1.11996e+08 iterations 17
Cbc0038I Pass  16: suminf.    2.22959 (31) obj. 1.11996e+08 iterations 17
Cbc0038I Pass  17: suminf.    2.67449 (35) obj. 1.11996e+08 iterations 13
Cbc0038I Pass  18: suminf.    2.39717 (30) obj. 1.11996e+08 iterations 68
Cbc0038I Pass  19: suminf.    2.67449 (35) obj. 1.11996e+08 iterations 29
Cbc0038I Pass  20: suminf.    2.43597 (33) obj. 1.11996e+08 iterations 5
Cbc0038I Pass  21: suminf.    2.67449 (35) obj. 1.11996e+08 iterations 4
Cbc0038I Pass  22: suminf.    2.33149 (31) obj. 1.11996e+08 iterations 7
Cbc0038I Pass  23: suminf.    2.67449 (35) obj. 1.11996e+08 iterations 11
Cbc0038I Pass  24: suminf.    2.36651 (33) obj. 1.11996e+08 iterations 5
Cbc0038I Pass  25: suminf.    2.67449 (35) obj. 1.11996e+08 iterations 5
Cbc0038I Pass  26: suminf.    3.39389 (36) obj. 1.11996e+08 iterations 80
Cbc0038I Pass  27: suminf.    3.38104 (37) obj. 1.11996e+08 iterations 1
Cbc0038I Pass  28: suminf.    3.25075 (36) obj. 1.11996e+08 iterations 24
Cbc0038I Pass  29: suminf.    2.71838 (37) obj. 1.11996e+08 iterations 3
Cbc0038I Pass  30: suminf.    2.28257 (31) obj. 1.11996e+08 iterations 13
Cbc0038I Pass  31: suminf.    2.69436 (36) obj. 1.11996e+08 iterations 21
Cbc0038I No solution found this major pass
Cbc0038I Before mini branch and bound, 0 integers at bound fixed and 4881 continuous
Cbc0038I Full problem 142 rows 5112 columns, reduced to 121 rows 209 columns
Cbc0038I Mini branch and bound improved solution from 1.22235e+08 to 1.18758e+08 (0.18 seconds)
Cbc0038I Freeing continuous variables gives a solution of 1.10328e+08
Cbc0038I Round again with cutoff of 9.2232e+07
Cbc0038I Pass  31: suminf.    2.27537 (29) obj. 9.2232e+07 iterations 16
Cbc0038I Pass  32: suminf.    1.46666 (29) obj. 9.2232e+07 iterations 6
Cbc0038I Pass  33: suminf.    3.88931 (45) obj. 9.2232e+07 iterations 102
Cbc0038I Pass  34: suminf.    3.49166 (43) obj. 9.2232e+07 iterations 4
Cbc0038I Pass  35: suminf.    2.97529 (45) obj. 9.2232e+07 iterations 19
Cbc0038I Pass  36: suminf.    2.96709 (45) obj. 9.2232e+07 iterations 1
Cbc0038I Pass  37: suminf.    3.01114 (45) obj. 9.2232e+07 iterations 11
Cbc0038I Pass  38: suminf.    2.78751 (45) obj. 9.2232e+07 iterations 6
Cbc0038I Pass  39: suminf.    2.50143 (44) obj. 9.2232e+07 iterations 26
Cbc0038I Pass  40: suminf.    2.50143 (44) obj. 9.2232e+07 iterations 0
Cbc0038I Pass  41: suminf.    2.91574 (44) obj. 9.2232e+07 iterations 22
Cbc0038I Pass  42: suminf.    2.89172 (45) obj. 9.2232e+07 iterations 1
Cbc0038I Pass  43: suminf.    3.02909 (45) obj. 9.2232e+07 iterations 14
Cbc0038I Pass  44: suminf.    3.02909 (45) obj. 9.2232e+07 iterations 0
Cbc0038I Pass  45: suminf.    3.12992 (44) obj. 9.2232e+07 iterations 5
Cbc0038I Pass  46: suminf.    3.10590 (45) obj. 9.2232e+07 iterations 1
Cbc0038I Pass  47: suminf.    3.10590 (45) obj. 9.2232e+07 iterations 0
Cbc0038I Pass  48: suminf.    3.88931 (45) obj. 9.2232e+07 iterations 69
Cbc0038I Pass  49: suminf.    3.27103 (39) obj. 9.2232e+07 iterations 13
Cbc0038I Pass  50: suminf.    3.09672 (44) obj. 9.2232e+07 iterations 19
Cbc0038I Pass  51: suminf.    3.08387 (45) obj. 9.2232e+07 iterations 1
Cbc0038I Pass  52: suminf.    3.01114 (45) obj. 9.2232e+07 iterations 40
Cbc0038I Pass  53: suminf.    2.98937 (44) obj. 9.2232e+07 iterations 4
Cbc0038I Pass  54: suminf.    3.01114 (45) obj. 9.2232e+07 iterations 4
Cbc0038I Pass  55: suminf.    3.15549 (45) obj. 9.2232e+07 iterations 75
Cbc0038I Pass  56: suminf.    3.14264 (46) obj. 9.2232e+07 iterations 1
Cbc0038I Pass  57: suminf.    3.01114 (45) obj. 9.2232e+07 iterations 36
Cbc0038I Pass  58: suminf.    2.76273 (45) obj. 9.2232e+07 iterations 12
Cbc0038I Pass  59: suminf.    2.80798 (45) obj. 9.2232e+07 iterations 30
Cbc0038I Pass  60: suminf.    2.78396 (46) obj. 9.2232e+07 iterations 1
Cbc0038I No solution found this major pass
Cbc0038I Before mini branch and bound, 0 integers at bound fixed and 4914 continuous
Cbc0038I Full problem 142 rows 5112 columns, reduced to 97 rows 150 columns
Cbc0038I Mini branch and bound did not improve solution (0.24 seconds)
Cbc0038I After 0.24 seconds - Feasibility pump exiting with objective of 1.10328e+08 - took 0.21 seconds
Cbc0012I Integer solution of 1.1032769e+08 found by feasibility pump after 0 iterations and 0 nodes (0.24 seconds)
Cbc0012I Integer solution of 1.0932722e+08 found by DiveCoefficient after 149 iterations and 0 nodes (0.45 seconds)
Cbc0031I 98 added rows had average density of 107.2551
Cbc0013I At root node, 98 cuts changed objective from 19849243 to 85729775 in 13 passes
Cbc0014I Cut generator 0 (Probing) - 1 row cuts average 71.0 elements, 0 column cuts (0 active)  in 0.048 seconds - new frequency is -100
Cbc0014I Cut generator 1 (Gomory) - 78 row cuts average 82.8 elements, 0 column cuts (0 active)  in 0.018 seconds - new frequency is -100
Cbc0014I Cut generator 2 (Knapsack) - 0 row cuts average 0.0 elements, 0 column cuts (0 active)  in 0.001 seconds - new frequency is -100
Cbc0014I Cut generator 3 (Clique) - 0 row cuts average 0.0 elements, 0 column cuts (0 active)  in 0.000 seconds - new frequency is -100
Cbc0014I Cut generator 4 (MixedIntegerRounding2) - 0 row cuts average 0.0 elements, 0 column cuts (0 active)  in 0.010 seconds - new frequency is -100
Cbc0014I Cut generator 5 (FlowCover) - 0 row cuts average 0.0 elements, 0 column cuts (0 active)  in 0.034 seconds - new frequency is -100
Cbc0014I Cut generator 6 (TwoMirCuts) - 109 row cuts average 112.7 elements, 0 column cuts (0 active)  in 0.013 seconds - new frequency is 1
Cbc0010I After 0 nodes, 1 on tree, 1.0932722e+08 best solution, best possible 85729775 (0.47 seconds)
Cbc0012I Integer solution of 1.0868594e+08 found by DiveCoefficient after 155 iterations and 2 nodes (0.54 seconds)
Cbc0012I Integer solution of 1.085083e+08 found by DiveCoefficient after 167 iterations and 5 nodes (0.76 seconds)
Cbc0012I Integer solution of 1.0818716e+08 found by DiveCoefficient after 172 iterations and 6 nodes (0.79 seconds)
Cbc0012I Integer solution of 1.0796264e+08 found by DiveCoefficient after 186 iterations and 9 nodes (0.85 seconds)
Cbc0012I Integer solution of 1.0705739e+08 found by DiveCoefficient after 190 iterations and 10 nodes (0.90 seconds)
Cbc0038I Full problem 142 rows 5112 columns, reduced to 108 rows 2650 columns - 2 fixed gives 108, 2648 - still too large
Cbc0038I Full problem 142 rows 5112 columns, reduced to 108 rows 2648 columns - too large
Cbc0012I Integer solution of 1.031946e+08 found by rounding after 435 iterations and 64 nodes (1.24 seconds)
Cbc0012I Integer solution of 98588416 found by rounding after 439 iterations and 66 nodes (1.25 seconds)
Cbc0004I Integer solution of 97945172 found after 452 iterations and 69 nodes (1.25 seconds)
Cbc0038I Full problem 142 rows 5112 columns, reduced to 107 rows 2578 columns - 1 fixed gives 107, 2577 - still too large
Cbc0038I Full problem 142 rows 5112 columns, reduced to 107 rows 2577 columns - too large
Cbc0010I After 100 nodes, 46 on tree, 97945172 best solution, best possible 85729775 (1.40 seconds)
Cbc0004I Integer solution of 97920529 found after 752 iterations and 133 nodes (1.47 seconds)
Cbc0038I Full problem 142 rows 5112 columns, reduced to 102 rows 1837 columns
Cbc0010I After 200 nodes, 70 on tree, 97920529 best solution, best possible 85729775 (1.59 seconds)
Cbc0038I Full problem 142 rows 5112 columns, reduced to 94 rows 1317 columns
Cbc0010I After 300 nodes, 120 on tree, 97920529 best solution, best possible 85729775 (1.83 seconds)
Cbc0038I Full problem 142 rows 5112 columns, reduced to 104 rows 1995 columns
Cbc0010I After 400 nodes, 131 on tree, 97920529 best solution, best possible 85729775 (1.99 seconds)
Cbc0004I Integer solution of 97446464 found after 2980 iterations and 496 nodes (2.33 seconds)
Cbc0010I After 500 nodes, 154 on tree, 97446464 best solution, best possible 85729775 (2.33 seconds)
Cbc0038I Full problem 142 rows 5112 columns, reduced to 100 rows 1690 columns
Cbc0010I After 600 nodes, 194 on tree, 97446464 best solution, best possible 85729775 (2.79 seconds)
Cbc0016I Integer solution of 96911552 found by strong branching after 4230 iterations and 666 nodes (3.11 seconds)
Cbc0010I After 700 nodes, 190 on tree, 96911552 best solution, best possible 85729775 (3.39 seconds)
Cbc0010I After 800 nodes, 212 on tree, 96911552 best solution, best possible 85729775 (4.25 seconds)
Cbc0038I Full problem 142 rows 5112 columns, reduced to 103 rows 1846 columns
Cbc0038I Full problem 142 rows 5112 columns, reduced to 90 rows 1059 columns
Cbc0010I After 900 nodes, 232 on tree, 96911552 best solution, best possible 85729775 (5.04 seconds)
Cbc0004I Integer solution of 96712966 found after 7664 iterations and 969 nodes (5.56 seconds)
Cbc0010I After 1000 nodes, 227 on tree, 96712966 best solution, best possible 85729775 (5.70 seconds)
Cbc0010I After 1100 nodes, 221 on tree, 96712966 best solution, best possible 85729775 (6.17 seconds)
Cbc0038I Full problem 142 rows 5112 columns, reduced to 96 rows 1393 columns
Cbc0010I After 1200 nodes, 177 on tree, 96712966 best solution, best possible 85729775 (6.65 seconds)
Cbc0010I After 1300 nodes, 132 on tree, 96712966 best solution, best possible 85729775 (7.11 seconds)
Cbc0010I After 1400 nodes, 99 on tree, 96712966 best solution, best possible 85729775 (7.69 seconds)
Cbc0010I After 1500 nodes, 77 on tree, 96712966 best solution, best possible 85729775 (8.31 seconds)
Cbc0004I Integer solution of 96632250 found after 13960 iterations and 1561 nodes (8.80 seconds)
Cbc0010I After 1600 nodes, 61 on tree, 96632250 best solution, best possible 85729775 (9.32 seconds)
Cbc0010I After 1700 nodes, 49 on tree, 96632250 best solution, best possible 85729775 (10.37 seconds)
Cbc0038I Full problem 142 rows 5112 columns, reduced to 107 rows 2161 columns
Cbc0010I After 1800 nodes, 7 on tree, 96632250 best solution, best possible 85729775 (10.94 seconds)
Cbc0010I After 1900 nodes, 33 on tree, 96632250 best solution, best possible 85729775 (12.32 seconds)
Cbc0004I Integer solution of 96573935 found after 20067 iterations and 1962 nodes (12.92 seconds)
Cbc0004I Integer solution of 96529078 found after 20283 iterations and 1977 nodes (13.00 seconds)
Cbc0010I After 2000 nodes, 14 on tree, 96529078 best solution, best possible 85729775 (13.08 seconds)
Cbc0010I After 2100 nodes, 46 on tree, 96529078 best solution, best possible 85729775 (13.91 seconds)
Cbc0010I After 2200 nodes, 73 on tree, 96529078 best solution, best possible 85729775 (14.72 seconds)
Cbc0010I After 2300 nodes, 71 on tree, 96529078 best solution, best possible 85729775 (15.37 seconds)
Cbc0010I After 2400 nodes, 53 on tree, 96529078 best solution, best possible 85729775 (16.09 seconds)
Cbc0010I After 2500 nodes, 12 on tree, 96529078 best solution, best possible 85729775 (16.56 seconds)
Cbc0010I After 2600 nodes, 23 on tree, 96529078 best solution, best possible 85729775 (17.60 seconds)
Cbc0010I After 2700 nodes, 21 on tree, 96529078 best solution, best possible 85729775 (18.46 seconds)
Cbc0004I Integer solution of 96444541 found after 29235 iterations and 2735 nodes (18.75 seconds)
Cbc0010I After 2800 nodes, 38 on tree, 96444541 best solution, best possible 85729775 (19.28 seconds)
Cbc0010I After 2900 nodes, 27 on tree, 96444541 best solution, best possible 85729775 (20.22 seconds)
Cbc0038I Full problem 142 rows 5112 columns, reduced to 105 rows 1957 columns
Cbc0010I After 3000 nodes, 16 on tree, 96444541 best solution, best possible 85729775 (21.09 seconds)
Cbc0010I After 3100 nodes, 19 on tree, 96444541 best solution, best possible 85729775 (21.80 seconds)
Cbc0010I After 3200 nodes, 46 on tree, 96444541 best solution, best possible 85729775 (22.61 seconds)
Cbc0010I After 3300 nodes, 28 on tree, 96444541 best solution, best possible 85729775 (23.30 seconds)
Cbc0010I After 3400 nodes, 11 on tree, 96444541 best solution, best possible 85729775 (24.10 seconds)
Cbc0004I Integer solution of 96426026 found after 37680 iterations and 3459 nodes (24.68 seconds)
Cbc0010I After 3500 nodes, 5 on tree, 96426026 best solution, best possible 85729775 (25.03 seconds)
Cbc0004I Integer solution of 96386418 found after 38792 iterations and 3544 nodes (25.48 seconds)
Cbc0038I Full problem 142 rows 5112 columns, reduced to 106 rows 1992 columns
Cbc0010I After 3600 nodes, 13 on tree, 96386418 best solution, best possible 85729775 (26.09 seconds)
Cbc0010I After 3700 nodes, 29 on tree, 96386418 best solution, best possible 85729775 (26.75 seconds)
Cbc0010I After 3800 nodes, 11 on tree, 96386418 best solution, best possible 85729775 (27.50 seconds)
Cbc0010I After 3900 nodes, 9 on tree, 96386418 best solution, best possible 85729775 (28.78 seconds)
Cbc0010I After 4000 nodes, 37 on tree, 96386418 best solution, best possible 87825352 (29.58 seconds)
Cbc0010I After 4100 nodes, 50 on tree, 96386418 best solution, best possible 87825352 (30.25 seconds)
Cbc0004I Integer solution of 96292471 found after 44703 iterations and 4112 nodes (30.35 seconds)
Cbc0038I Full problem 142 rows 5112 columns, reduced to 109 rows 2185 columns - 1 fixed gives 109, 2184 - still too large
Cbc0038I Full problem 142 rows 5112 columns, reduced to 109 rows 2184 columns - too large
Cbc0010I After 4200 nodes, 33 on tree, 96292471 best solution, best possible 87825352 (31.19 seconds)
Cbc0004I Integer solution of 95876923 found after 47821 iterations and 4285 nodes (32.07 seconds)
Cbc0010I After 4300 nodes, 8 on tree, 95876923 best solution, best possible 87825352 (32.16 seconds)
Cbc0004I Integer solution of 95781294 found after 48777 iterations and 4351 nodes (32.81 seconds)
Cbc0010I After 4400 nodes, 8 on tree, 95781294 best solution, best possible 87825352 (33.40 seconds)
Cbc0004I Integer solution of 95520330 found after 49500 iterations and 4403 nodes (33.45 seconds)
Cbc0012I Integer solution of 95480722 found by DiveCoefficient after 50147 iterations and 4445 nodes (34.00 seconds)
Cbc0010I After 4500 nodes, 16 on tree, 95480722 best solution, best possible 89523908 (34.83 seconds)
Cbc0010I After 4600 nodes, 4 on tree, 95480722 best solution, best possible 89523908 (35.78 seconds)
Cbc0001I Search completed - best objective 95480721.56453437, took 52641 iterations and 4628 nodes (36.04 seconds)
Cbc0032I Strong branching done 25490 times (101109 iterations), fathomed 753 nodes and fixed 4795 variables
Cbc0035I Maximum depth 42, 918 variables fixed on reduced cost
Cuts at root node changed objective from 1.98492e+07 to 8.57298e+07
Probing was tried 13 times and created 1 cuts of which 0 were active after adding rounds of cuts (0.048 seconds)
Gomory was tried 13 times and created 78 cuts of which 0 were active after adding rounds of cuts (0.018 seconds)
Knapsack was tried 13 times and created 0 cuts of which 0 were active after adding rounds of cuts (0.001 seconds)
Clique was tried 13 times and created 0 cuts of which 0 were active after adding rounds of cuts (0.000 seconds)
MixedIntegerRounding2 was tried 13 times and created 0 cuts of which 0 were active after adding rounds of cuts (0.010 seconds)
FlowCover was tried 13 times and created 0 cuts of which 0 were active after adding rounds of cuts (0.034 seconds)
TwoMirCuts was tried 3476 times and created 110 cuts of which 0 were active after adding rounds of cuts (0.527 seconds)
ZeroHalf was tried 1 times and created 0 cuts of which 0 were active after adding rounds of cuts (0.000 seconds)

Result - Optimal solution found

Objective value:                95480721.56453437
Enumerated nodes:               4628
Total iterations:               52641
Time (CPU seconds):             35.13
Time (Wallclock seconds):       36.05

Option for printingOptions changed from normal to all
Total time (CPU seconds):       35.14   (Wallclock seconds):       36.06

